db/data/304371345722406165201249619962276009411.z3.out
sat
-------------------
355.050167538
